! HF-3c opt
* xyz 0 1
C     0.00000000   0.00000000   0.00000000
S     1.83000000   0.00000000   0.00000000
S     2.15069100   2.02476100   0.00000000
C     1.88547500   2.35661100   1.78001100
H    -0.35486900   0.60578000  -0.83378500
H    -0.35486900   0.60578000   0.83378500
H     2.53520300   1.70412900   2.36329600
H     0.91318400   1.96103200   2.07372500
C     2.07686000   3.86180700   2.04336600
H     1.91889000   4.05946600   3.10359000
N     1.20277300   4.62107200   1.13761200
C     3.45280800   4.29426400   1.50359900
O     4.14077200   3.51959600   0.98187700
O     3.87341800   5.65547500   1.62643800
H     0.59733600   4.13299800   0.49315100
H     1.19654300   5.63052600   1.17022500
H     4.74767100   5.74846500   1.24090600
C    -0.50137500  -1.45609900  -0.00000000
H    -1.59137500  -1.45609900  -0.00000000
N     0.11527300  -2.17458900   1.12446300
C     0.14463700  -2.20880300  -1.17800900
O     0.89229000  -1.66151400  -1.87592700
O    -0.16072800  -3.58826800  -1.39875400
H     0.74289200  -1.69002900   1.75007900
H    -0.10040400  -3.14889700   1.28037400
H    -0.69150600  -4.29544800  -1.02489400
*
%geom
Constraints
{D 3 2 1 0 C}
end
end
