! HF-3c opt
* xyz 0 1
C     0.00000000   0.00000000   0.00000000
S     1.83000000   0.00000000   0.00000000
S     2.15069100   2.02476100   0.00000000
C     2.50547400   2.25841200   1.78001100
H    -0.35486900   0.60578000  -0.83378500
H    -0.35486900   0.60578000   0.83378500
H     3.30793700   1.58174000   2.07372500
H     1.68591900   1.83864300   2.36329600
C     2.78858900   3.74908000   2.04336600
H     2.99990800   3.88824900   3.10359000
N     1.66702900   4.54754100   1.52813400
C     3.90527900   4.22260000   1.09448100
O     4.36930800   3.48339900   0.33037500
O     4.35532500   5.57914900   1.14065500
H     0.87495800   4.08902700   1.10094700
H     1.68158900   5.55370300   1.61489400
H     5.04877300   5.70077500   0.48801900
C    -0.50137500  -1.45609900  -0.00000000
H    -1.59137500  -1.45609900  -0.00000000
N     0.11527300  -2.17458900   1.12446300
C     0.14463700  -2.20880300  -1.17800900
O     0.89229000  -1.66151400  -1.87592700
O    -0.16072800  -3.58826800  -1.39875400
H     0.74289200  -1.69002900   1.75007900
H    -0.10040400  -3.14889700   1.28037400
H    -0.69150600  -4.29544800  -1.02489400
*
%geom
Constraints
{D 3 2 1 0 C}
end
end
