! HF-3c opt
* xyz 0 1
N    -2.34548300  -0.24764000   3.48269900
C    -1.46748300  -0.18664000   2.31469900
C    -0.28648300   0.77336000   2.43469900
O     0.86551700   0.39736000   2.20469900
C    -2.29348300   0.21136000   1.08869900
S    -1.31348300   0.70536000  -0.36830100
N     3.40751700  -1.06564000  -1.42530100
C     2.04151700  -0.60564000  -1.65630100
C     1.98651700   0.91836000  -1.70530100
O     1.29651700   1.50436000  -2.54130100
C     1.10951700  -1.12664000  -0.56530100
S    -0.63748300  -1.07464000  -1.07830100
O    -0.48649200   2.00941300   2.78422600
O     2.67505200   1.62128400  -0.85570200
H    -2.15910500   0.32794200   4.27892100
H    -3.14074200  -0.85390100   3.47929000
H     3.67661600  -1.23716600  -2.37301700
H     4.05983100  -1.22368100  -0.68401200
H    -0.40284500  -1.18930500   2.46339000
H     1.81349500  -0.49100700  -3.10397700
H    -2.93716700   1.52265800   1.25322200
H    -2.55091800  -1.15299500   0.60583100
H     2.43908000  -1.39503600   0.00137800
H     1.37382600  -2.33801600  -1.35499000
H    -0.63419000   2.92219100   3.04233800
H     3.18350800   2.14036600  -0.22830700
*
%geom
Constraints
{D 1 0 3 4 C}
{D 0 3 4 10 C}
{D 3 4 10 9 C}
{D 7 6 9 10 C}
{D 7 9 10 4 C}
end
end
