! HF-3c opt
* xyz 0 1
C     0.00000000   0.00000000   0.00000000
S     1.83000000   0.00000000   0.00000000
S     2.15069100   2.02476100   0.00000000
C     3.87303000   2.04181300   0.61819100
H    -0.35486900   0.60578000  -0.83378500
H    -0.35486900   0.60578000   0.83378500
H     4.48303700   1.39562200  -0.01302100
H     3.91971600   1.48484400   1.55398300
C     4.35847600   3.50043400   0.70965400
H     5.38434900   3.51059100   1.07786600
N     3.40494700   4.27228100   1.51955200
C     4.15542500   4.18298100  -0.65581400
O     3.68242200   3.59219100  -1.53492500
O     4.53024900   5.55144400  -0.83389700
H     2.59839800   3.81606100   1.92134900
H     3.56434700   5.25550200   1.68678900
H     4.33661200   5.81357100  -1.73689000
C    -0.50137500  -1.45609900  -0.00000000
H    -1.59137500  -1.45609900  -0.00000000
N     0.11527300  -2.17458900   1.12446300
C     0.14463700  -2.20880300  -1.17800900
O     0.89229000  -1.66151400  -1.87592700
O    -0.16072800  -3.58826800  -1.39875400
H     0.74289200  -1.69002900   1.75007900
H    -0.10040400  -3.14889700   1.28037400
H    -0.69150600  -4.29544800  -1.02489400
*
%geom
Constraints
{D 3 2 1 0 C}
end
end
