! HF-3c opt
* xyz 0 1
C     0.00000000   0.00000000   0.00000000
S     1.83000000   0.00000000   0.00000000
S     2.15069100   2.02476100   0.00000000
C     3.08808300   2.16613600   1.56531500
H    -0.35486900   0.60578000  -0.83378500
H    -0.35486900   0.60578000   0.83378500
H     3.93625000   1.48222500   1.53403300
H     2.50987100   1.70814100   2.36781800
C     3.45739600   3.64315100   1.79690600
H     4.01573300   3.72735800   2.72925100
N     2.23520800   4.45755000   1.73434000
C     4.19225900   4.17714600   0.55335200
O     4.36397900   3.48424300  -0.36097600
O     4.64406600   5.53341700   0.51729300
H     1.34115600   4.01518900   1.57595200
H     2.28759600   5.45772000   1.86478300
H     5.07738500   5.69624300  -0.32373100
C    -0.50137500  -1.45609900  -0.00000000
H    -1.59137500  -1.45609900  -0.00000000
N     0.11527300  -2.17458900   1.12446300
C     0.14463700  -2.20880300  -1.17800900
O     0.89229000  -1.66151400  -1.87592700
O    -0.16072800  -3.58826800  -1.39875400
H     0.74289200  -1.69002900   1.75007900
H    -0.10040400  -3.14889700   1.28037400
H    -0.69150600  -4.29544800  -1.02489400
*
%geom
Constraints
{D 3 2 1 0 C}
end
end
