! HF-3c opt
* xyz 0 1
C     0.00000000   0.00000000   0.00000000
S     1.83000000   0.00000000   0.00000000
S     2.15069100   2.02476100   0.00000000
C     1.58489400   2.40421800   1.69846600
H    -0.35486900   0.60578000  -0.83378500
H    -0.35486900   0.60578000   0.83378500
H     2.12342200   1.76934900   2.40205000
H     0.57571000   2.01448300   1.83170700
C     1.73180800   3.91645800   1.94975700
H     1.39480300   4.14247300   2.96141100
N     1.02780400   4.64878400   0.88722400
C     3.18095400   4.33732100   1.64243200
O     3.94638400   3.55038400   1.26767300
O     3.57745800   5.70235100   1.79856700
H     0.54072600   4.14196500   0.16197400
H     1.01844200   5.65873500   0.89085200
H     4.50509500   5.78688500   1.56631000
C    -0.50137500  -1.45609900  -0.00000000
H    -1.59137500  -1.45609900  -0.00000000
N     0.11527300  -2.17458900   1.12446300
C     0.14463700  -2.20880300  -1.17800900
O     0.89229000  -1.66151400  -1.87592700
O    -0.16072800  -3.58826800  -1.39875400
H     0.74289200  -1.69002900   1.75007900
H    -0.10040400  -3.14889700   1.28037400
H    -0.69150600  -4.29544800  -1.02489400
*
%geom
Constraints
{D 3 2 1 0 C}
end
end
